
  32    1
  10

   0   0   6 2 4 5 8 9 11 
   1   1   3 23 7 3 
   9   2   4 20 14 13 6 
   5   1   2 10 6 
   5   3   2 20 6 
   6   1   4 31 19 15 12 
   3   3   4 31 20 15 12 
   9   1   7 31 30 22 19 17 16 14 
   6   3   5 31 22 20 17 13 
   4   1   6 31 30 20 18 17 15 
   5   3   6 30 27 22 18 17 16 
   2   1   6 30 29 27 22 18 17 
   7   3   5 29 28 19 18 16 
   9   2   5 29 27 25 21 18 
  10   5   3 29 28 16 
  10   1   3 26 25 21 
   3   2   3 28 25 24 
   8   2   2 26 24 
   4   2   2 27 24 
   3   2   2 27 24 
  10   2   1 24 
  10   2   1 24 
  10   3   1 24 
   8   4   1 32
  10   1   1 32
   1   1   1 32
   9   1   1 32
   1   1   1 32
   8   1   1 32
   1   2   1 32
   2   3   1 32
   0   0   0 
